\* GAP *\
Minimize
sum_of_the_cost_of_the_selected_arcs: 34225 x_(0,_10,_0) + 34225 x_(0,_10,_1)
 + 34225 x_(0,_10,_2) + 34225 x_(0,_10,_3) + 48400 x_(0,_11,_0)
 + 48400 x_(0,_11,_1) + 48400 x_(0,_11,_3) + 62500 x_(0,_12,_0)
 + 62500 x_(0,_12,_1) + 62500 x_(0,_12,_3) + 84100 x_(0,_13,_0)
 + 84100 x_(0,_13,_1) + 84100 x_(0,_13,_3) + 87025 x_(0,_14,_0)
 + 87025 x_(0,_14,_1) + 87025 x_(0,_14,_2) + 87025 x_(0,_14,_3)
 + 96100 x_(0,_15,_1) + 96100 x_(0,_15,_3) + 176400 x_(0,_16,_0)
 + 176400 x_(0,_16,_1) + 176400 x_(0,_16,_2) + 176400 x_(0,_16,_3)
 + 400 x_(0,_2,_1) + 400 x_(0,_2,_3) + 1225 x_(0,_3,_0) + 1225 x_(0,_3,_1)
 + 1225 x_(0,_3,_2) + 1225 x_(0,_3,_3) + 2500 x_(0,_4,_0) + 2500 x_(0,_4,_1)
 + 2500 x_(0,_4,_2) + 2500 x_(0,_4,_3) + 10000 x_(0,_5,_0) + 10000 x_(0,_5,_1)
 + 10000 x_(0,_5,_3) + 12100 x_(0,_6,_1) + 12100 x_(0,_6,_3)
 + 14400 x_(0,_7,_0) + 14400 x_(0,_7,_1) + 14400 x_(0,_7,_2)
 + 14400 x_(0,_7,_3) + 19600 x_(0,_8,_1) + 19600 x_(0,_8,_3)
 + 30625 x_(0,_9,_0) + 30625 x_(0,_9,_1) + 30625 x_(0,_9,_2)
 + 30625 x_(0,_9,_3) + 15129 x_(1,_10,_0) + 15129 x_(1,_10,_1)
 + 15129 x_(1,_10,_2) + 15129 x_(1,_10,_3) + 24964 x_(1,_11,_0)
 + 24964 x_(1,_11,_1) + 24964 x_(1,_11,_3) + 35344 x_(1,_12,_0)
 + 35344 x_(1,_12,_1) + 35344 x_(1,_12,_3) + 51984 x_(1,_13,_0)
 + 51984 x_(1,_13,_1) + 51984 x_(1,_13,_3) + 54289 x_(1,_14,_0)
 + 54289 x_(1,_14,_1) + 54289 x_(1,_14,_2) + 54289 x_(1,_14,_3)
 + 61504 x_(1,_15,_1) + 61504 x_(1,_15,_3) + 128164 x_(1,_16,_0)
 + 128164 x_(1,_16,_1) + 128164 x_(1,_16,_2) + 128164 x_(1,_16,_3)
 + 1444 x_(1,_5,_0) + 1444 x_(1,_5,_1) + 1444 x_(1,_5,_3) + 2304 x_(1,_6,_1)
 + 2304 x_(1,_6,_3) + 3364 x_(1,_7,_0) + 3364 x_(1,_7,_1) + 3364 x_(1,_7,_2)
 + 3364 x_(1,_7,_3) + 6084 x_(1,_8,_1) + 6084 x_(1,_8,_3) + 12769 x_(1,_9,_0)
 + 12769 x_(1,_9,_1) + 12769 x_(1,_9,_2) + 12769 x_(1,_9,_3)
 + 900 x_(10,_13,_0) + 900 x_(10,_13,_1) + 900 x_(10,_13,_3)
 + 1225 x_(10,_14,_0) + 1225 x_(10,_14,_1) + 1225 x_(10,_14,_2)
 + 1225 x_(10,_14,_3) + 2500 x_(10,_15,_1) + 2500 x_(10,_15,_3)
 + 25600 x_(10,_16,_0) + 25600 x_(10,_16,_1) + 25600 x_(10,_16,_2)
 + 25600 x_(10,_16,_3) + 225 x_(11,_15,_1) + 225 x_(11,_15,_3)
 + 15625 x_(11,_16,_0) + 15625 x_(11,_16,_1) + 15625 x_(11,_16,_3)
 + 9025 x_(12,_16,_0) + 9025 x_(12,_16,_1) + 9025 x_(12,_16,_3)
 + 400 x_(13,_16,_0) + 400 x_(13,_16,_1) + 400 x_(13,_16,_3)
 + 3969 x_(14,_16,_0) + 3969 x_(14,_16,_1) + 3969 x_(14,_16,_2)
 + 3969 x_(14,_16,_3) + 3025 x_(2,_10,_1) + 3025 x_(2,_10,_3)
 + 8100 x_(2,_11,_1) + 8100 x_(2,_11,_3) + 14400 x_(2,_12,_1)
 + 14400 x_(2,_12,_3) + 25600 x_(2,_13,_1) + 25600 x_(2,_13,_3)
 + 27225 x_(2,_14,_1) + 27225 x_(2,_14,_3) + 32400 x_(2,_15,_1)
 + 32400 x_(2,_15,_3) + 84100 x_(2,_16,_1) + 84100 x_(2,_16,_3)
 + 100 x_(2,_8,_1) + 100 x_(2,_8,_3) + 2025 x_(2,_9,_1) + 2025 x_(2,_9,_3)
 + 5625 x_(3,_10,_0) + 5625 x_(3,_10,_1) + 5625 x_(3,_10,_2)
 + 5625 x_(3,_10,_3) + 12100 x_(3,_11,_0) + 12100 x_(3,_11,_1)
 + 12100 x_(3,_11,_3) + 19600 x_(3,_12,_0) + 19600 x_(3,_12,_1)
 + 19600 x_(3,_12,_3) + 32400 x_(3,_13,_0) + 32400 x_(3,_13,_1)
 + 32400 x_(3,_13,_3) + 34225 x_(3,_14,_0) + 34225 x_(3,_14,_1)
 + 34225 x_(3,_14,_2) + 34225 x_(3,_14,_3) + 40000 x_(3,_15,_1)
 + 40000 x_(3,_15,_3) + 96100 x_(3,_16,_0) + 96100 x_(3,_16,_1)
 + 96100 x_(3,_16,_2) + 96100 x_(3,_16,_3) + 100 x_(3,_7,_0) + 100 x_(3,_7,_1)
 + 100 x_(3,_7,_2) + 100 x_(3,_7,_3) + 900 x_(3,_8,_1) + 900 x_(3,_8,_3)
 + 4225 x_(3,_9,_0) + 4225 x_(3,_9,_1) + 4225 x_(3,_9,_2) + 4225 x_(3,_9,_3)
 + 5329 x_(4,_10,_0) + 5329 x_(4,_10,_1) + 5329 x_(4,_10,_2)
 + 5329 x_(4,_10,_3) + 11664 x_(4,_11,_0) + 11664 x_(4,_11,_1)
 + 11664 x_(4,_11,_3) + 19044 x_(4,_12,_0) + 19044 x_(4,_12,_1)
 + 19044 x_(4,_12,_3) + 31684 x_(4,_13,_0) + 31684 x_(4,_13,_1)
 + 31684 x_(4,_13,_3) + 33489 x_(4,_14,_0) + 33489 x_(4,_14,_1)
 + 33489 x_(4,_14,_2) + 33489 x_(4,_14,_3) + 39204 x_(4,_15,_1)
 + 39204 x_(4,_15,_3) + 94864 x_(4,_16,_0) + 94864 x_(4,_16,_1)
 + 94864 x_(4,_16,_2) + 94864 x_(4,_16,_3) + 64 x_(4,_7,_0) + 64 x_(4,_7,_1)
 + 64 x_(4,_7,_2) + 64 x_(4,_7,_3) + 784 x_(4,_8,_1) + 784 x_(4,_8,_3)
 + 3969 x_(4,_9,_0) + 3969 x_(4,_9,_1) + 3969 x_(4,_9,_2) + 3969 x_(4,_9,_3)
 + 100 x_(5,_10,_0) + 100 x_(5,_10,_1) + 100 x_(5,_10,_3) + 2025 x_(5,_11,_0)
 + 2025 x_(5,_11,_1) + 2025 x_(5,_11,_3) + 5625 x_(5,_12,_0)
 + 5625 x_(5,_12,_1) + 5625 x_(5,_12,_3) + 13225 x_(5,_13,_0)
 + 13225 x_(5,_13,_1) + 13225 x_(5,_13,_3) + 14400 x_(5,_14,_0)
 + 14400 x_(5,_14,_1) + 14400 x_(5,_14,_3) + 18225 x_(5,_15,_1)
 + 18225 x_(5,_15,_3) + 60025 x_(5,_16,_0) + 60025 x_(5,_16,_1)
 + 60025 x_(5,_16,_3) + 900 x_(6,_12,_1) + 900 x_(6,_12,_3)
 + 4900 x_(6,_13,_1) + 4900 x_(6,_13,_3) + 5625 x_(6,_14,_1)
 + 5625 x_(6,_14,_3) + 8100 x_(6,_15,_1) + 8100 x_(6,_15,_3)
 + 40000 x_(6,_16,_1) + 40000 x_(6,_16,_3) + 9 x_(7,_10,_0) + 9 x_(7,_10,_1)
 + 9 x_(7,_10,_2) + 9 x_(7,_10,_3) + 1444 x_(7,_11,_0) + 1444 x_(7,_11,_1)
 + 1444 x_(7,_11,_3) + 4624 x_(7,_12,_0) + 4624 x_(7,_12,_1)
 + 4624 x_(7,_12,_3) + 11664 x_(7,_13,_0) + 11664 x_(7,_13,_1)
 + 11664 x_(7,_13,_3) + 12769 x_(7,_14,_0) + 12769 x_(7,_14,_1)
 + 12769 x_(7,_14,_2) + 12769 x_(7,_14,_3) + 16384 x_(7,_15,_1)
 + 16384 x_(7,_15,_3) + 56644 x_(7,_16,_0) + 56644 x_(7,_16,_1)
 + 56644 x_(7,_16,_2) + 56644 x_(7,_16,_3) + 1600 x_(8,_13,_1)
 + 1600 x_(8,_13,_3) + 2025 x_(8,_14,_1) + 2025 x_(8,_14,_3)
 + 3600 x_(8,_15,_1) + 3600 x_(8,_15,_3) + 28900 x_(8,_16,_1)
 + 28900 x_(8,_16,_3) + 1600 x_(9,_13,_0) + 1600 x_(9,_13,_1)
 + 1600 x_(9,_13,_3) + 2025 x_(9,_14,_0) + 2025 x_(9,_14,_1)
 + 2025 x_(9,_14,_2) + 2025 x_(9,_14,_3) + 3600 x_(9,_15,_1)
 + 3600 x_(9,_15,_3) + 28900 x_(9,_16,_0) + 28900 x_(9,_16,_1)
 + 28900 x_(9,_16,_2) + 28900 x_(9,_16,_3)
Subject To
End_at_the_last_edge_of_gate_0: x_(0,_16,_0) + x_(1,_16,_0) + x_(10,_16,_0)
 + x_(11,_16,_0) + x_(12,_16,_0) + x_(13,_16,_0) + x_(14,_16,_0)
 + x_(3,_16,_0) + x_(4,_16,_0) + x_(5,_16,_0) + x_(7,_16,_0) + x_(9,_16,_0)
 = 1
End_at_the_last_edge_of_gate_1: x_(0,_16,_1) + x_(1,_16,_1) + x_(10,_16,_1)
 + x_(11,_16,_1) + x_(12,_16,_1) + x_(13,_16,_1) + x_(14,_16,_1)
 + x_(15,_16,_1) + x_(2,_16,_1) + x_(3,_16,_1) + x_(4,_16,_1) + x_(5,_16,_1)
 + x_(6,_16,_1) + x_(7,_16,_1) + x_(8,_16,_1) + x_(9,_16,_1) = 1
End_at_the_last_edge_of_gate_2: x_(0,_16,_2) + x_(1,_16,_2) + x_(10,_16,_2)
 + x_(14,_16,_2) + x_(3,_16,_2) + x_(4,_16,_2) + x_(7,_16,_2) + x_(9,_16,_2)
 = 1
End_at_the_last_edge_of_gate_3: x_(0,_16,_3) + x_(1,_16,_3) + x_(10,_16,_3)
 + x_(11,_16,_3) + x_(12,_16,_3) + x_(13,_16,_3) + x_(14,_16,_3)
 + x_(15,_16,_3) + x_(2,_16,_3) + x_(3,_16,_3) + x_(4,_16,_3) + x_(5,_16,_3)
 + x_(6,_16,_3) + x_(7,_16,_3) + x_(8,_16,_3) + x_(9,_16,_3) = 1
Making_sure_that_the_flight_10_has_exactly_one_gate: x_(0,_10,_0)
 + x_(0,_10,_1) + x_(0,_10,_2) + x_(0,_10,_3) + x_(1,_10,_0) + x_(1,_10,_1)
 + x_(1,_10,_2) + x_(1,_10,_3) + x_(2,_10,_1) + x_(2,_10,_3) + x_(3,_10,_0)
 + x_(3,_10,_1) + x_(3,_10,_2) + x_(3,_10,_3) + x_(4,_10,_0) + x_(4,_10,_1)
 + x_(4,_10,_2) + x_(4,_10,_3) + x_(5,_10,_0) + x_(5,_10,_1) + x_(5,_10,_3)
 + x_(7,_10,_0) + x_(7,_10,_1) + x_(7,_10,_2) + x_(7,_10,_3) = 1
Making_sure_that_the_flight_11_has_exactly_one_gate: x_(0,_11,_0)
 + x_(0,_11,_1) + x_(0,_11,_3) + x_(1,_11,_0) + x_(1,_11,_1) + x_(1,_11,_3)
 + x_(2,_11,_1) + x_(2,_11,_3) + x_(3,_11,_0) + x_(3,_11,_1) + x_(3,_11,_3)
 + x_(4,_11,_0) + x_(4,_11,_1) + x_(4,_11,_3) + x_(5,_11,_0) + x_(5,_11,_1)
 + x_(5,_11,_3) + x_(6,_11,_1) + x_(6,_11,_3) + x_(7,_11,_0) + x_(7,_11,_1)
 + x_(7,_11,_3) = 1
Making_sure_that_the_flight_12_has_exactly_one_gate: x_(0,_12,_0)
 + x_(0,_12,_1) + x_(0,_12,_3) + x_(1,_12,_0) + x_(1,_12,_1) + x_(1,_12,_3)
 + x_(2,_12,_1) + x_(2,_12,_3) + x_(3,_12,_0) + x_(3,_12,_1) + x_(3,_12,_3)
 + x_(4,_12,_0) + x_(4,_12,_1) + x_(4,_12,_3) + x_(5,_12,_0) + x_(5,_12,_1)
 + x_(5,_12,_3) + x_(6,_12,_1) + x_(6,_12,_3) + x_(7,_12,_0) + x_(7,_12,_1)
 + x_(7,_12,_3) + x_(8,_12,_1) + x_(8,_12,_3) + x_(9,_12,_0) + x_(9,_12,_1)
 + x_(9,_12,_3) = 1
Making_sure_that_the_flight_13_has_exactly_one_gate: x_(0,_13,_0)
 + x_(0,_13,_1) + x_(0,_13,_3) + x_(1,_13,_0) + x_(1,_13,_1) + x_(1,_13,_3)
 + x_(10,_13,_0) + x_(10,_13,_1) + x_(10,_13,_3) + x_(2,_13,_1) + x_(2,_13,_3)
 + x_(3,_13,_0) + x_(3,_13,_1) + x_(3,_13,_3) + x_(4,_13,_0) + x_(4,_13,_1)
 + x_(4,_13,_3) + x_(5,_13,_0) + x_(5,_13,_1) + x_(5,_13,_3) + x_(6,_13,_1)
 + x_(6,_13,_3) + x_(7,_13,_0) + x_(7,_13,_1) + x_(7,_13,_3) + x_(8,_13,_1)
 + x_(8,_13,_3) + x_(9,_13,_0) + x_(9,_13,_1) + x_(9,_13,_3) = 1
Making_sure_that_the_flight_14_has_exactly_one_gate: x_(0,_14,_0)
 + x_(0,_14,_1) + x_(0,_14,_2) + x_(0,_14,_3) + x_(1,_14,_0) + x_(1,_14,_1)
 + x_(1,_14,_2) + x_(1,_14,_3) + x_(10,_14,_0) + x_(10,_14,_1) + x_(10,_14,_2)
 + x_(10,_14,_3) + x_(11,_14,_0) + x_(11,_14,_1) + x_(11,_14,_3)
 + x_(2,_14,_1) + x_(2,_14,_3) + x_(3,_14,_0) + x_(3,_14,_1) + x_(3,_14,_2)
 + x_(3,_14,_3) + x_(4,_14,_0) + x_(4,_14,_1) + x_(4,_14,_2) + x_(4,_14,_3)
 + x_(5,_14,_0) + x_(5,_14,_1) + x_(5,_14,_3) + x_(6,_14,_1) + x_(6,_14,_3)
 + x_(7,_14,_0) + x_(7,_14,_1) + x_(7,_14,_2) + x_(7,_14,_3) + x_(8,_14,_1)
 + x_(8,_14,_3) + x_(9,_14,_0) + x_(9,_14,_1) + x_(9,_14,_2) + x_(9,_14,_3)
 = 1
Making_sure_that_the_flight_15_has_exactly_one_gate: x_(0,_15,_1)
 + x_(0,_15,_3) + x_(1,_15,_1) + x_(1,_15,_3) + x_(10,_15,_1) + x_(10,_15,_3)
 + x_(11,_15,_1) + x_(11,_15,_3) + x_(2,_15,_1) + x_(2,_15,_3) + x_(3,_15,_1)
 + x_(3,_15,_3) + x_(4,_15,_1) + x_(4,_15,_3) + x_(5,_15,_1) + x_(5,_15,_3)
 + x_(6,_15,_1) + x_(6,_15,_3) + x_(7,_15,_1) + x_(7,_15,_3) + x_(8,_15,_1)
 + x_(8,_15,_3) + x_(9,_15,_1) + x_(9,_15,_3) = 1
Making_sure_that_the_flight_1_has_exactly_one_gate: x_(0,_1,_0) + x_(0,_1,_1)
 + x_(0,_1,_2) + x_(0,_1,_3) = 1
Making_sure_that_the_flight_2_has_exactly_one_gate: x_(0,_2,_1) + x_(0,_2,_3)
 = 1
Making_sure_that_the_flight_3_has_exactly_one_gate: x_(0,_3,_0) + x_(0,_3,_1)
 + x_(0,_3,_2) + x_(0,_3,_3) = 1
Making_sure_that_the_flight_4_has_exactly_one_gate: x_(0,_4,_0) + x_(0,_4,_1)
 + x_(0,_4,_2) + x_(0,_4,_3) = 1
Making_sure_that_the_flight_5_has_exactly_one_gate: x_(0,_5,_0) + x_(0,_5,_1)
 + x_(0,_5,_3) + x_(1,_5,_0) + x_(1,_5,_1) + x_(1,_5,_3) = 1
Making_sure_that_the_flight_6_has_exactly_one_gate: x_(0,_6,_1) + x_(0,_6,_3)
 + x_(1,_6,_1) + x_(1,_6,_3) + x_(3,_6,_1) + x_(3,_6,_3) = 1
Making_sure_that_the_flight_7_has_exactly_one_gate: x_(0,_7,_0) + x_(0,_7,_1)
 + x_(0,_7,_2) + x_(0,_7,_3) + x_(1,_7,_0) + x_(1,_7,_1) + x_(1,_7,_2)
 + x_(1,_7,_3) + x_(3,_7,_0) + x_(3,_7,_1) + x_(3,_7,_2) + x_(3,_7,_3)
 + x_(4,_7,_0) + x_(4,_7,_1) + x_(4,_7,_2) + x_(4,_7,_3) = 1
Making_sure_that_the_flight_8_has_exactly_one_gate: x_(0,_8,_1) + x_(0,_8,_3)
 + x_(1,_8,_1) + x_(1,_8,_3) + x_(2,_8,_1) + x_(2,_8,_3) + x_(3,_8,_1)
 + x_(3,_8,_3) + x_(4,_8,_1) + x_(4,_8,_3) = 1
Making_sure_that_the_flight_9_has_exactly_one_gate: x_(0,_9,_0) + x_(0,_9,_1)
 + x_(0,_9,_2) + x_(0,_9,_3) + x_(1,_9,_0) + x_(1,_9,_1) + x_(1,_9,_2)
 + x_(1,_9,_3) + x_(2,_9,_1) + x_(2,_9,_3) + x_(3,_9,_0) + x_(3,_9,_1)
 + x_(3,_9,_2) + x_(3,_9,_3) + x_(4,_9,_0) + x_(4,_9,_1) + x_(4,_9,_2)
 + x_(4,_9,_3) + x_(5,_9,_0) + x_(5,_9,_1) + x_(5,_9,_3) = 1
Start_from_edge_0_from_gate_0: x_(0,_1,_0) + x_(0,_10,_0) + x_(0,_11,_0)
 + x_(0,_12,_0) + x_(0,_13,_0) + x_(0,_14,_0) + x_(0,_16,_0) + x_(0,_3,_0)
 + x_(0,_4,_0) + x_(0,_5,_0) + x_(0,_7,_0) + x_(0,_9,_0) = 1
Start_from_edge_0_from_gate_1: x_(0,_1,_1) + x_(0,_10,_1) + x_(0,_11,_1)
 + x_(0,_12,_1) + x_(0,_13,_1) + x_(0,_14,_1) + x_(0,_15,_1) + x_(0,_16,_1)
 + x_(0,_2,_1) + x_(0,_3,_1) + x_(0,_4,_1) + x_(0,_5,_1) + x_(0,_6,_1)
 + x_(0,_7,_1) + x_(0,_8,_1) + x_(0,_9,_1) = 1
Start_from_edge_0_from_gate_2: x_(0,_1,_2) + x_(0,_10,_2) + x_(0,_14,_2)
 + x_(0,_16,_2) + x_(0,_3,_2) + x_(0,_4,_2) + x_(0,_7,_2) + x_(0,_9,_2) = 1
Start_from_edge_0_from_gate_3: x_(0,_1,_3) + x_(0,_10,_3) + x_(0,_11,_3)
 + x_(0,_12,_3) + x_(0,_13,_3) + x_(0,_14,_3) + x_(0,_15,_3) + x_(0,_16,_3)
 + x_(0,_2,_3) + x_(0,_3,_3) + x_(0,_4,_3) + x_(0,_5,_3) + x_(0,_6,_3)
 + x_(0,_7,_3) + x_(0,_8,_3) + x_(0,_9,_3) = 1
flow_10_of_gate_0: x_(0,_10,_0) + x_(1,_10,_0) - x_(10,_13,_0) - x_(10,_14,_0)
 - x_(10,_16,_0) + x_(3,_10,_0) + x_(4,_10,_0) + x_(5,_10,_0) + x_(7,_10,_0)
 = 0
flow_10_of_gate_1: x_(0,_10,_1) + x_(1,_10,_1) - x_(10,_13,_1) - x_(10,_14,_1)
 - x_(10,_15,_1) - x_(10,_16,_1) + x_(2,_10,_1) + x_(3,_10,_1) + x_(4,_10,_1)
 + x_(5,_10,_1) + x_(7,_10,_1) = 0
flow_10_of_gate_2: x_(0,_10,_2) + x_(1,_10,_2) - x_(10,_14,_2) - x_(10,_16,_2)
 + x_(3,_10,_2) + x_(4,_10,_2) + x_(7,_10,_2) = 0
flow_10_of_gate_3: x_(0,_10,_3) + x_(1,_10,_3) - x_(10,_13,_3) - x_(10,_14,_3)
 - x_(10,_15,_3) - x_(10,_16,_3) + x_(2,_10,_3) + x_(3,_10,_3) + x_(4,_10,_3)
 + x_(5,_10,_3) + x_(7,_10,_3) = 0
flow_11_of_gate_0: x_(0,_11,_0) + x_(1,_11,_0) - x_(11,_14,_0) - x_(11,_16,_0)
 + x_(3,_11,_0) + x_(4,_11,_0) + x_(5,_11,_0) + x_(7,_11,_0) = 0
flow_11_of_gate_1: x_(0,_11,_1) + x_(1,_11,_1) - x_(11,_14,_1) - x_(11,_15,_1)
 - x_(11,_16,_1) + x_(2,_11,_1) + x_(3,_11,_1) + x_(4,_11,_1) + x_(5,_11,_1)
 + x_(6,_11,_1) + x_(7,_11,_1) = 0
_dummy: __dummy = 0
flow_11_of_gate_2: __dummy = 0
flow_11_of_gate_3: x_(0,_11,_3) + x_(1,_11,_3) - x_(11,_14,_3) - x_(11,_15,_3)
 - x_(11,_16,_3) + x_(2,_11,_3) + x_(3,_11,_3) + x_(4,_11,_3) + x_(5,_11,_3)
 + x_(6,_11,_3) + x_(7,_11,_3) = 0
flow_12_of_gate_0: x_(0,_12,_0) + x_(1,_12,_0) - x_(12,_16,_0) + x_(3,_12,_0)
 + x_(4,_12,_0) + x_(5,_12,_0) + x_(7,_12,_0) + x_(9,_12,_0) = 0
flow_12_of_gate_1: x_(0,_12,_1) + x_(1,_12,_1) - x_(12,_16,_1) + x_(2,_12,_1)
 + x_(3,_12,_1) + x_(4,_12,_1) + x_(5,_12,_1) + x_(6,_12,_1) + x_(7,_12,_1)
 + x_(8,_12,_1) + x_(9,_12,_1) = 0
flow_12_of_gate_2: __dummy = 0
flow_12_of_gate_3: x_(0,_12,_3) + x_(1,_12,_3) - x_(12,_16,_3) + x_(2,_12,_3)
 + x_(3,_12,_3) + x_(4,_12,_3) + x_(5,_12,_3) + x_(6,_12,_3) + x_(7,_12,_3)
 + x_(8,_12,_3) + x_(9,_12,_3) = 0
flow_13_of_gate_0: x_(0,_13,_0) + x_(1,_13,_0) + x_(10,_13,_0) - x_(13,_16,_0)
 + x_(3,_13,_0) + x_(4,_13,_0) + x_(5,_13,_0) + x_(7,_13,_0) + x_(9,_13,_0)
 = 0
flow_13_of_gate_1: x_(0,_13,_1) + x_(1,_13,_1) + x_(10,_13,_1) - x_(13,_16,_1)
 + x_(2,_13,_1) + x_(3,_13,_1) + x_(4,_13,_1) + x_(5,_13,_1) + x_(6,_13,_1)
 + x_(7,_13,_1) + x_(8,_13,_1) + x_(9,_13,_1) = 0
flow_13_of_gate_2: __dummy = 0
flow_13_of_gate_3: x_(0,_13,_3) + x_(1,_13,_3) + x_(10,_13,_3) - x_(13,_16,_3)
 + x_(2,_13,_3) + x_(3,_13,_3) + x_(4,_13,_3) + x_(5,_13,_3) + x_(6,_13,_3)
 + x_(7,_13,_3) + x_(8,_13,_3) + x_(9,_13,_3) = 0
flow_14_of_gate_0: x_(0,_14,_0) + x_(1,_14,_0) + x_(10,_14,_0) + x_(11,_14,_0)
 - x_(14,_16,_0) + x_(3,_14,_0) + x_(4,_14,_0) + x_(5,_14,_0) + x_(7,_14,_0)
 + x_(9,_14,_0) = 0
flow_14_of_gate_1: x_(0,_14,_1) + x_(1,_14,_1) + x_(10,_14,_1) + x_(11,_14,_1)
 - x_(14,_16,_1) + x_(2,_14,_1) + x_(3,_14,_1) + x_(4,_14,_1) + x_(5,_14,_1)
 + x_(6,_14,_1) + x_(7,_14,_1) + x_(8,_14,_1) + x_(9,_14,_1) = 0
flow_14_of_gate_2: x_(0,_14,_2) + x_(1,_14,_2) + x_(10,_14,_2) - x_(14,_16,_2)
 + x_(3,_14,_2) + x_(4,_14,_2) + x_(7,_14,_2) + x_(9,_14,_2) = 0
flow_14_of_gate_3: x_(0,_14,_3) + x_(1,_14,_3) + x_(10,_14,_3) + x_(11,_14,_3)
 - x_(14,_16,_3) + x_(2,_14,_3) + x_(3,_14,_3) + x_(4,_14,_3) + x_(5,_14,_3)
 + x_(6,_14,_3) + x_(7,_14,_3) + x_(8,_14,_3) + x_(9,_14,_3) = 0
flow_15_of_gate_0: __dummy = 0
flow_15_of_gate_1: x_(0,_15,_1) + x_(1,_15,_1) + x_(10,_15,_1) + x_(11,_15,_1)
 - x_(15,_16,_1) + x_(2,_15,_1) + x_(3,_15,_1) + x_(4,_15,_1) + x_(5,_15,_1)
 + x_(6,_15,_1) + x_(7,_15,_1) + x_(8,_15,_1) + x_(9,_15,_1) = 0
flow_15_of_gate_2: __dummy = 0
flow_15_of_gate_3: x_(0,_15,_3) + x_(1,_15,_3) + x_(10,_15,_3) + x_(11,_15,_3)
 - x_(15,_16,_3) + x_(2,_15,_3) + x_(3,_15,_3) + x_(4,_15,_3) + x_(5,_15,_3)
 + x_(6,_15,_3) + x_(7,_15,_3) + x_(8,_15,_3) + x_(9,_15,_3) = 0
flow_1_of_gate_0: x_(0,_1,_0) - x_(1,_10,_0) - x_(1,_11,_0) - x_(1,_12,_0)
 - x_(1,_13,_0) - x_(1,_14,_0) - x_(1,_16,_0) - x_(1,_5,_0) - x_(1,_7,_0)
 - x_(1,_9,_0) = 0
flow_1_of_gate_1: x_(0,_1,_1) - x_(1,_10,_1) - x_(1,_11,_1) - x_(1,_12,_1)
 - x_(1,_13,_1) - x_(1,_14,_1) - x_(1,_15,_1) - x_(1,_16,_1) - x_(1,_5,_1)
 - x_(1,_6,_1) - x_(1,_7,_1) - x_(1,_8,_1) - x_(1,_9,_1) = 0
flow_1_of_gate_2: x_(0,_1,_2) - x_(1,_10,_2) - x_(1,_14,_2) - x_(1,_16,_2)
 - x_(1,_7,_2) - x_(1,_9,_2) = 0
flow_1_of_gate_3: x_(0,_1,_3) - x_(1,_10,_3) - x_(1,_11,_3) - x_(1,_12,_3)
 - x_(1,_13,_3) - x_(1,_14,_3) - x_(1,_15,_3) - x_(1,_16,_3) - x_(1,_5,_3)
 - x_(1,_6,_3) - x_(1,_7,_3) - x_(1,_8,_3) - x_(1,_9,_3) = 0
flow_2_of_gate_0: __dummy = 0
flow_2_of_gate_1: x_(0,_2,_1) - x_(2,_10,_1) - x_(2,_11,_1) - x_(2,_12,_1)
 - x_(2,_13,_1) - x_(2,_14,_1) - x_(2,_15,_1) - x_(2,_16,_1) - x_(2,_8,_1)
 - x_(2,_9,_1) = 0
flow_2_of_gate_2: __dummy = 0
flow_2_of_gate_3: x_(0,_2,_3) - x_(2,_10,_3) - x_(2,_11,_3) - x_(2,_12,_3)
 - x_(2,_13,_3) - x_(2,_14,_3) - x_(2,_15,_3) - x_(2,_16,_3) - x_(2,_8,_3)
 - x_(2,_9,_3) = 0
flow_3_of_gate_0: x_(0,_3,_0) - x_(3,_10,_0) - x_(3,_11,_0) - x_(3,_12,_0)
 - x_(3,_13,_0) - x_(3,_14,_0) - x_(3,_16,_0) - x_(3,_7,_0) - x_(3,_9,_0) = 0
flow_3_of_gate_1: x_(0,_3,_1) - x_(3,_10,_1) - x_(3,_11,_1) - x_(3,_12,_1)
 - x_(3,_13,_1) - x_(3,_14,_1) - x_(3,_15,_1) - x_(3,_16,_1) - x_(3,_6,_1)
 - x_(3,_7,_1) - x_(3,_8,_1) - x_(3,_9,_1) = 0
flow_3_of_gate_2: x_(0,_3,_2) - x_(3,_10,_2) - x_(3,_14,_2) - x_(3,_16,_2)
 - x_(3,_7,_2) - x_(3,_9,_2) = 0
flow_3_of_gate_3: x_(0,_3,_3) - x_(3,_10,_3) - x_(3,_11,_3) - x_(3,_12,_3)
 - x_(3,_13,_3) - x_(3,_14,_3) - x_(3,_15,_3) - x_(3,_16,_3) - x_(3,_6,_3)
 - x_(3,_7,_3) - x_(3,_8,_3) - x_(3,_9,_3) = 0
flow_4_of_gate_0: x_(0,_4,_0) - x_(4,_10,_0) - x_(4,_11,_0) - x_(4,_12,_0)
 - x_(4,_13,_0) - x_(4,_14,_0) - x_(4,_16,_0) - x_(4,_7,_0) - x_(4,_9,_0) = 0
flow_4_of_gate_1: x_(0,_4,_1) - x_(4,_10,_1) - x_(4,_11,_1) - x_(4,_12,_1)
 - x_(4,_13,_1) - x_(4,_14,_1) - x_(4,_15,_1) - x_(4,_16,_1) - x_(4,_7,_1)
 - x_(4,_8,_1) - x_(4,_9,_1) = 0
flow_4_of_gate_2: x_(0,_4,_2) - x_(4,_10,_2) - x_(4,_14,_2) - x_(4,_16,_2)
 - x_(4,_7,_2) - x_(4,_9,_2) = 0
flow_4_of_gate_3: x_(0,_4,_3) - x_(4,_10,_3) - x_(4,_11,_3) - x_(4,_12,_3)
 - x_(4,_13,_3) - x_(4,_14,_3) - x_(4,_15,_3) - x_(4,_16,_3) - x_(4,_7,_3)
 - x_(4,_8,_3) - x_(4,_9,_3) = 0
flow_5_of_gate_0: x_(0,_5,_0) + x_(1,_5,_0) - x_(5,_10,_0) - x_(5,_11,_0)
 - x_(5,_12,_0) - x_(5,_13,_0) - x_(5,_14,_0) - x_(5,_16,_0) - x_(5,_9,_0) = 0
flow_5_of_gate_1: x_(0,_5,_1) + x_(1,_5,_1) - x_(5,_10,_1) - x_(5,_11,_1)
 - x_(5,_12,_1) - x_(5,_13,_1) - x_(5,_14,_1) - x_(5,_15,_1) - x_(5,_16,_1)
 - x_(5,_9,_1) = 0
flow_5_of_gate_2: __dummy = 0
flow_5_of_gate_3: x_(0,_5,_3) + x_(1,_5,_3) - x_(5,_10,_3) - x_(5,_11,_3)
 - x_(5,_12,_3) - x_(5,_13,_3) - x_(5,_14,_3) - x_(5,_15,_3) - x_(5,_16,_3)
 - x_(5,_9,_3) = 0
flow_6_of_gate_0: __dummy = 0
flow_6_of_gate_1: x_(0,_6,_1) + x_(1,_6,_1) + x_(3,_6,_1) - x_(6,_11,_1)
 - x_(6,_12,_1) - x_(6,_13,_1) - x_(6,_14,_1) - x_(6,_15,_1) - x_(6,_16,_1)
 = 0
flow_6_of_gate_2: __dummy = 0
flow_6_of_gate_3: x_(0,_6,_3) + x_(1,_6,_3) + x_(3,_6,_3) - x_(6,_11,_3)
 - x_(6,_12,_3) - x_(6,_13,_3) - x_(6,_14,_3) - x_(6,_15,_3) - x_(6,_16,_3)
 = 0
flow_7_of_gate_0: x_(0,_7,_0) + x_(1,_7,_0) + x_(3,_7,_0) + x_(4,_7,_0)
 - x_(7,_10,_0) - x_(7,_11,_0) - x_(7,_12,_0) - x_(7,_13,_0) - x_(7,_14,_0)
 - x_(7,_16,_0) = 0
flow_7_of_gate_1: x_(0,_7,_1) + x_(1,_7,_1) + x_(3,_7,_1) + x_(4,_7,_1)
 - x_(7,_10,_1) - x_(7,_11,_1) - x_(7,_12,_1) - x_(7,_13,_1) - x_(7,_14,_1)
 - x_(7,_15,_1) - x_(7,_16,_1) = 0
flow_7_of_gate_2: x_(0,_7,_2) + x_(1,_7,_2) + x_(3,_7,_2) + x_(4,_7,_2)
 - x_(7,_10,_2) - x_(7,_14,_2) - x_(7,_16,_2) = 0
flow_7_of_gate_3: x_(0,_7,_3) + x_(1,_7,_3) + x_(3,_7,_3) + x_(4,_7,_3)
 - x_(7,_10,_3) - x_(7,_11,_3) - x_(7,_12,_3) - x_(7,_13,_3) - x_(7,_14,_3)
 - x_(7,_15,_3) - x_(7,_16,_3) = 0
flow_8_of_gate_0: __dummy = 0
flow_8_of_gate_1: x_(0,_8,_1) + x_(1,_8,_1) + x_(2,_8,_1) + x_(3,_8,_1)
 + x_(4,_8,_1) - x_(8,_12,_1) - x_(8,_13,_1) - x_(8,_14,_1) - x_(8,_15,_1)
 - x_(8,_16,_1) = 0
flow_8_of_gate_2: __dummy = 0
flow_8_of_gate_3: x_(0,_8,_3) + x_(1,_8,_3) + x_(2,_8,_3) + x_(3,_8,_3)
 + x_(4,_8,_3) - x_(8,_12,_3) - x_(8,_13,_3) - x_(8,_14,_3) - x_(8,_15,_3)
 - x_(8,_16,_3) = 0
flow_9_of_gate_0: x_(0,_9,_0) + x_(1,_9,_0) + x_(3,_9,_0) + x_(4,_9,_0)
 + x_(5,_9,_0) - x_(9,_12,_0) - x_(9,_13,_0) - x_(9,_14,_0) - x_(9,_16,_0) = 0
flow_9_of_gate_1: x_(0,_9,_1) + x_(1,_9,_1) + x_(2,_9,_1) + x_(3,_9,_1)
 + x_(4,_9,_1) + x_(5,_9,_1) - x_(9,_12,_1) - x_(9,_13,_1) - x_(9,_14,_1)
 - x_(9,_15,_1) - x_(9,_16,_1) = 0
flow_9_of_gate_2: x_(0,_9,_2) + x_(1,_9,_2) + x_(3,_9,_2) + x_(4,_9,_2)
 - x_(9,_14,_2) - x_(9,_16,_2) = 0
flow_9_of_gate_3: x_(0,_9,_3) + x_(1,_9,_3) + x_(2,_9,_3) + x_(3,_9,_3)
 + x_(4,_9,_3) + x_(5,_9,_3) - x_(9,_12,_3) - x_(9,_13,_3) - x_(9,_14,_3)
 - x_(9,_15,_3) - x_(9,_16,_3) = 0
Bounds
 __dummy = 0
Binaries
x_(0,_1,_0)
x_(0,_1,_1)
x_(0,_1,_2)
x_(0,_1,_3)
x_(0,_10,_0)
x_(0,_10,_1)
x_(0,_10,_2)
x_(0,_10,_3)
x_(0,_11,_0)
x_(0,_11,_1)
x_(0,_11,_3)
x_(0,_12,_0)
x_(0,_12,_1)
x_(0,_12,_3)
x_(0,_13,_0)
x_(0,_13,_1)
x_(0,_13,_3)
x_(0,_14,_0)
x_(0,_14,_1)
x_(0,_14,_2)
x_(0,_14,_3)
x_(0,_15,_1)
x_(0,_15,_3)
x_(0,_16,_0)
x_(0,_16,_1)
x_(0,_16,_2)
x_(0,_16,_3)
x_(0,_2,_1)
x_(0,_2,_3)
x_(0,_3,_0)
x_(0,_3,_1)
x_(0,_3,_2)
x_(0,_3,_3)
x_(0,_4,_0)
x_(0,_4,_1)
x_(0,_4,_2)
x_(0,_4,_3)
x_(0,_5,_0)
x_(0,_5,_1)
x_(0,_5,_3)
x_(0,_6,_1)
x_(0,_6,_3)
x_(0,_7,_0)
x_(0,_7,_1)
x_(0,_7,_2)
x_(0,_7,_3)
x_(0,_8,_1)
x_(0,_8,_3)
x_(0,_9,_0)
x_(0,_9,_1)
x_(0,_9,_2)
x_(0,_9,_3)
x_(1,_10,_0)
x_(1,_10,_1)
x_(1,_10,_2)
x_(1,_10,_3)
x_(1,_11,_0)
x_(1,_11,_1)
x_(1,_11,_3)
x_(1,_12,_0)
x_(1,_12,_1)
x_(1,_12,_3)
x_(1,_13,_0)
x_(1,_13,_1)
x_(1,_13,_3)
x_(1,_14,_0)
x_(1,_14,_1)
x_(1,_14,_2)
x_(1,_14,_3)
x_(1,_15,_1)
x_(1,_15,_3)
x_(1,_16,_0)
x_(1,_16,_1)
x_(1,_16,_2)
x_(1,_16,_3)
x_(1,_5,_0)
x_(1,_5,_1)
x_(1,_5,_3)
x_(1,_6,_1)
x_(1,_6,_3)
x_(1,_7,_0)
x_(1,_7,_1)
x_(1,_7,_2)
x_(1,_7,_3)
x_(1,_8,_1)
x_(1,_8,_3)
x_(1,_9,_0)
x_(1,_9,_1)
x_(1,_9,_2)
x_(1,_9,_3)
x_(10,_13,_0)
x_(10,_13,_1)
x_(10,_13,_3)
x_(10,_14,_0)
x_(10,_14,_1)
x_(10,_14,_2)
x_(10,_14,_3)
x_(10,_15,_1)
x_(10,_15,_3)
x_(10,_16,_0)
x_(10,_16,_1)
x_(10,_16,_2)
x_(10,_16,_3)
x_(11,_14,_0)
x_(11,_14,_1)
x_(11,_14,_3)
x_(11,_15,_1)
x_(11,_15,_3)
x_(11,_16,_0)
x_(11,_16,_1)
x_(11,_16,_3)
x_(12,_16,_0)
x_(12,_16,_1)
x_(12,_16,_3)
x_(13,_16,_0)
x_(13,_16,_1)
x_(13,_16,_3)
x_(14,_16,_0)
x_(14,_16,_1)
x_(14,_16,_2)
x_(14,_16,_3)
x_(15,_16,_1)
x_(15,_16,_3)
x_(2,_10,_1)
x_(2,_10,_3)
x_(2,_11,_1)
x_(2,_11,_3)
x_(2,_12,_1)
x_(2,_12,_3)
x_(2,_13,_1)
x_(2,_13,_3)
x_(2,_14,_1)
x_(2,_14,_3)
x_(2,_15,_1)
x_(2,_15,_3)
x_(2,_16,_1)
x_(2,_16,_3)
x_(2,_8,_1)
x_(2,_8,_3)
x_(2,_9,_1)
x_(2,_9,_3)
x_(3,_10,_0)
x_(3,_10,_1)
x_(3,_10,_2)
x_(3,_10,_3)
x_(3,_11,_0)
x_(3,_11,_1)
x_(3,_11,_3)
x_(3,_12,_0)
x_(3,_12,_1)
x_(3,_12,_3)
x_(3,_13,_0)
x_(3,_13,_1)
x_(3,_13,_3)
x_(3,_14,_0)
x_(3,_14,_1)
x_(3,_14,_2)
x_(3,_14,_3)
x_(3,_15,_1)
x_(3,_15,_3)
x_(3,_16,_0)
x_(3,_16,_1)
x_(3,_16,_2)
x_(3,_16,_3)
x_(3,_6,_1)
x_(3,_6,_3)
x_(3,_7,_0)
x_(3,_7,_1)
x_(3,_7,_2)
x_(3,_7,_3)
x_(3,_8,_1)
x_(3,_8,_3)
x_(3,_9,_0)
x_(3,_9,_1)
x_(3,_9,_2)
x_(3,_9,_3)
x_(4,_10,_0)
x_(4,_10,_1)
x_(4,_10,_2)
x_(4,_10,_3)
x_(4,_11,_0)
x_(4,_11,_1)
x_(4,_11,_3)
x_(4,_12,_0)
x_(4,_12,_1)
x_(4,_12,_3)
x_(4,_13,_0)
x_(4,_13,_1)
x_(4,_13,_3)
x_(4,_14,_0)
x_(4,_14,_1)
x_(4,_14,_2)
x_(4,_14,_3)
x_(4,_15,_1)
x_(4,_15,_3)
x_(4,_16,_0)
x_(4,_16,_1)
x_(4,_16,_2)
x_(4,_16,_3)
x_(4,_7,_0)
x_(4,_7,_1)
x_(4,_7,_2)
x_(4,_7,_3)
x_(4,_8,_1)
x_(4,_8,_3)
x_(4,_9,_0)
x_(4,_9,_1)
x_(4,_9,_2)
x_(4,_9,_3)
x_(5,_10,_0)
x_(5,_10,_1)
x_(5,_10,_3)
x_(5,_11,_0)
x_(5,_11,_1)
x_(5,_11,_3)
x_(5,_12,_0)
x_(5,_12,_1)
x_(5,_12,_3)
x_(5,_13,_0)
x_(5,_13,_1)
x_(5,_13,_3)
x_(5,_14,_0)
x_(5,_14,_1)
x_(5,_14,_3)
x_(5,_15,_1)
x_(5,_15,_3)
x_(5,_16,_0)
x_(5,_16,_1)
x_(5,_16,_3)
x_(5,_9,_0)
x_(5,_9,_1)
x_(5,_9,_3)
x_(6,_11,_1)
x_(6,_11,_3)
x_(6,_12,_1)
x_(6,_12,_3)
x_(6,_13,_1)
x_(6,_13,_3)
x_(6,_14,_1)
x_(6,_14,_3)
x_(6,_15,_1)
x_(6,_15,_3)
x_(6,_16,_1)
x_(6,_16,_3)
x_(7,_10,_0)
x_(7,_10,_1)
x_(7,_10,_2)
x_(7,_10,_3)
x_(7,_11,_0)
x_(7,_11,_1)
x_(7,_11,_3)
x_(7,_12,_0)
x_(7,_12,_1)
x_(7,_12,_3)
x_(7,_13,_0)
x_(7,_13,_1)
x_(7,_13,_3)
x_(7,_14,_0)
x_(7,_14,_1)
x_(7,_14,_2)
x_(7,_14,_3)
x_(7,_15,_1)
x_(7,_15,_3)
x_(7,_16,_0)
x_(7,_16,_1)
x_(7,_16,_2)
x_(7,_16,_3)
x_(8,_12,_1)
x_(8,_12,_3)
x_(8,_13,_1)
x_(8,_13,_3)
x_(8,_14,_1)
x_(8,_14,_3)
x_(8,_15,_1)
x_(8,_15,_3)
x_(8,_16,_1)
x_(8,_16,_3)
x_(9,_12,_0)
x_(9,_12,_1)
x_(9,_12,_3)
x_(9,_13,_0)
x_(9,_13,_1)
x_(9,_13,_3)
x_(9,_14,_0)
x_(9,_14,_1)
x_(9,_14,_2)
x_(9,_14,_3)
x_(9,_15,_1)
x_(9,_15,_3)
x_(9,_16,_0)
x_(9,_16,_1)
x_(9,_16,_2)
x_(9,_16,_3)
End
